5 5
0 47 1 57 3 72 2 57 4 62
0 86 4 57 1 68 2 99 3 72
0 98 1 86 4 25 3 89 2 40
2 17 3 80 4 48 0 39 1 15
3 17 1 35 4 33 0 18 2 30
-1
0 2 5
0 2 3 5
0 3 5
0 2 3 4 5
0 3 5
-2
141 444
158 267 478
311 416
102 155 189 262
131 154

566 4
0 10 18 5 23
21 1 11 19 7
15 3 14 8 24
20 16 2 13 9
22 17 12 6 4
